dataset/large-102.in
50
99.0
0 49 4.31 4.41
1 48 4.19 4.67
2 47 4.51 4.06
3 46 4.46 4.87
4 45 4.49 4.4
5 44 4.77 4.11
6 43 4.16 4.16
7 42 4.17 4.36
8 41 4.41 4.17
9 40 3.95 3.88
10 39 4.15 4.0
11 38 4.0 5.97
12 37 4.35 5.0
13 36 4.03 4.14
14 35 3.94 3.83
15 34 4.15 4.0
16 33 4.12 4.0
17 32 4.16 4.34
18 31 4.16 3.87
19 30 4.07 3.9
20 29 4.14 3.93
21 28 4.18 4.0
22 27 4.22 4.04
23 26 4.19 4.12
24 25 4.2 4.04
25 24 4.04 4.38
26 23 3.96 4.0
27 22 3.91 4.05
28 21 3.81 3.95
29 20 3.7 3.7
30 19 3.47 3.63
31 18 3.44 3.06
32 17 3.47 2.94
33 16 3.44 3.38
34 15 3.33 3.0
35 14 3.36 2.93
36 13 3.38 3.08
37 12 3.5 3.17
38 11 3.0 2.91
39 10 3.0 3.0
40 9 3.0 3.0
41 8 3.0 3.0
42 7 3.0 3.0
43 6 3.0 3.0
44 5 3.0 3.0
45 4 3.0 3.0
46 3 3.0 3.0
47 2 3.0 3.0
48 1 3.0 3.0
