DpOutput/large-102.out
115.52
35
35
32
32
32
32
32
32
32
32
32
32
32
32
32
32
32
32
32
31
31
5
5
5
5
5
5
5
5
5
